Problem:    
Rows:       260
Columns:    89 (72 integer, 72 binary)
Non-zeros:  812
Status:     INTEGER OPTIMAL
Objective:  value = 1.629456 (MINimum)

   No.   Row name        Activity     Lower bound   Upper bound
------ ------------    ------------- ------------- -------------
     1 r.5                   1001.63             0               
     2 r.6                  -999.401      -999.602               
     3 r.7                   1.62946             0               
     4 r.8                  0.598856      -999.082               
     5 r.9                   1.62946             0               
     6 r.10                 -999.595      -999.614               
     7 r.11                  1001.63             0               
     8 r.12                   -998.9      -999.106               
     9 r.13                  1.62946             0               
    10 r.14                 -999.943      -999.962               
    11 r.15                  1001.63             0               
    12 r.16                 -999.789       -999.92               
    13 r.17                  1.62946             0               
    14 r.18                 -999.926      -999.945               
    15 r.19                  1001.63             0               
    16 r.20                 -999.869      -999.888               
    17 r.21                  1001.63             0               
    18 r.22                 -999.799      -999.818               
    19 r.23                  1.62946             0               
    20 r.24                 0.598856      -999.596               
    21 r.25                  1001.63             0               
    22 r.26                 -999.981      -999.981               
    23 r.27                  1.62946             0               
    24 r.28                    0.019      -999.952               
    25 r.29                  1001.63             0               
    26 r.30                 -998.371       -999.47               
    27 r.31                  1.62946             0               
    28 r.32                  1.62946      -998.645               
    29 r.33                  1001.63             0               
    30 r.34                   -998.9      -999.499               
    31 r.35                  1.62946             0               
    32 r.36                  1.62946      -998.666               
    33 r.37                        1             1             = 
    34 r.38                        1             1             = 
    35 r.39                        1             1             = 
    36 r.40                        1             1             = 
    37 r.41                        1             1             = 
    38 r.42                        1             1             = 
    39 r.43                        1             1             = 
    40 r.44                        1             1             = 
    41 r.45                     1001             2               
    42 r.46                    -1001         -1001               
    43 r.47                  999.806      -999.614               
    44 r.48                     1001             2               
    45 r.49                    -1001         -1001               
    46 r.50                   2000.5      -999.106               
    47 r.51                     1001             2               
    48 r.52                    -1001         -1001               
    49 r.53                  999.458      -999.962               
    50 r.54                     1001             2               
    51 r.55                    -1001         -1001               
    52 r.56                  1999.61       -999.92               
    53 r.57                     1001             2               
    54 r.58                    -1001         -1001               
    55 r.59                  999.475      -999.945               
    56 r.60                     1001             2               
    57 r.61                    -1001         -1001               
    58 r.62                  1999.53      -999.888               
    59 r.63                        2             2               
    60 r.64                       -2         -1001               
    61 r.65                -0.397989      -999.818               
    62 r.66                     1000             2               
    63 r.67                    -1000         -1001               
    64 r.68                     2000      -999.596               
    65 r.69                  -999.42      -999.602               
    66 r.70                 0.579856      -999.082               
    67 r.71                  -999.42      -999.602               
    68 r.72                 0.579856      -999.082               
    69 r.73                 -998.969       -999.47               
    70 r.74                   1.0306      -998.645               
    71 r.75                 -998.969       -999.47               
    72 r.76                   1.0306      -998.645               
    73 r.77                 -999.499      -999.499               
    74 r.78                   1.0306      -998.666               
    75 r.79                 -999.499      -999.499               
    76 r.80                   1.0306      -998.666               
    77 r.81                     1001             2               
    78 r.82                    -1001         -1001               
    79 r.83                  3000.19      0.397989               
    80 r.84                     1001             2               
    81 r.85                    -1001         -1001               
    82 r.86                   1999.5      0.917613               
    83 r.87                     1000             2               
    84 r.88                    -1000         -1001               
    85 r.89                  1999.65      -999.962               
    86 r.90                        2             2               
    87 r.91                       -2         -1001               
    88 r.92                -0.888371       -999.92               
    89 r.93                     1000             2               
    90 r.94                    -1000         -1001               
    91 r.95                  1999.67      -999.945               
    92 r.96                        2             2               
    93 r.97                       -2         -1001               
    94 r.98                -0.968721      -999.888               
    95 r.99                     1001             2               
    96 r.100                   -1001         -1001               
    97 r.101                  2999.8      -999.818               
    98 r.102                    1001             2               
    99 r.103                   -1001         -1001               
   100 r.104                  1999.5      -999.596               
   101 r.105                -999.614      -999.614               
   102 r.106                -998.919      -999.106               
   103 r.107                -999.614      -999.614               
   104 r.108                -998.919      -999.106               
   105 r.109                 1.22455       -999.47               
   106 r.110                 1001.22      -998.645               
   107 r.111                 -999.47       -999.47               
   108 r.112                  0.5298      -998.645               
   109 r.113                    1001             2               
   110 r.114                   -1001         -1001               
   111 r.115                 3000.69      -999.499               
   112 r.116                    1001             2               
   113 r.117                   -1001         -1001               
   114 r.118                 2000.53      -998.666               
   115 r.119                    1001             2               
   116 r.120                   -1001         -1001               
   117 r.121                 3000.54      0.397989               
   118 r.122                    1001             2               
   119 r.123                   -1001         -1001               
   120 r.124                 2000.39      0.917613               
   121 r.125                    1000             2               
   122 r.126                   -1000         -1001               
   123 r.127                 2000.35      0.385908               
   124 r.128                       2             2               
   125 r.129                      -2         -1001               
   126 r.130                0.888371      0.894133               
   127 r.131                    1000             2               
   128 r.132                   -1000         -1001               
   129 r.133                 2000.02      -999.945               
   130 r.134                       2             2               
   131 r.135                      -2         -1001               
   132 r.136                -0.08035      -999.888               
   133 r.137                    1001             2               
   134 r.138                   -1001         -1001               
   135 r.139                 3000.14      -999.818               
   136 r.140                    1001             2               
   137 r.141                   -1001         -1001               
   138 r.142                 2000.39      -999.596               
   139 r.143                -999.962      -999.962               
   140 r.144                -999.808       -999.92               
   141 r.145                -999.962      -999.962               
   142 r.146                -999.808       -999.92               
   143 r.147                 1.57284       -999.47               
   144 r.148                 1001.57      -998.645               
   145 r.149                -998.582       -999.47               
   146 r.150                 1.41817      -998.645               
   147 r.151                 1.04304      -999.499               
   148 r.152                 1001.57      -998.666               
   149 r.153                -999.112      -999.499               
   150 r.154                 1.41817      -998.666               
   151 r.155                    1001             2               
   152 r.156                   -1001         -1001               
   153 r.157                 3000.53      0.397989               
   154 r.158                    1001             2               
   155 r.159                   -1001         -1001               
   156 r.160                 2000.47      0.917613               
   157 r.161                    1000             2               
   158 r.162                   -1000         -1001               
   159 r.163                 2000.33      0.385908               
   160 r.164                       2             2               
   161 r.165                      -2         -1001               
   162 r.166                0.968721      0.894133               
   163 r.167                    1000             2               
   164 r.168                   -1000         -1001               
   165 r.169                 1999.98      0.037617               
   166 r.170                       2             2               
   167 r.171                      -2         -1001               
   168 r.172                 0.08035       0.08035               
   169 r.173                    1001             2               
   170 r.174                   -1001         -1001               
   171 r.175                 3000.13      -999.818               
   172 r.176                    1001             2               
   173 r.177                   -1001         -1001               
   174 r.178                 2000.47      -999.596               
   175 r.179                -999.945      -999.945               
   176 r.180                -999.888      -999.888               
   177 r.181                -999.945      -999.945               
   178 r.182                -999.888      -999.888               
   179 r.183                 1.55565       -999.47               
   180 r.184                 1001.56      -998.645               
   181 r.185                -998.501       -999.47               
   182 r.186                 1.49852      -998.645               
   183 r.187                    1001             2               
   184 r.188                   -1001         -1001               
   185 r.189                 3001.03      -999.499               
   186 r.190                    1001             2               
   187 r.191                   -1001         -1001               
   188 r.192                  2001.5      -998.666               
   189 r.193                       2             2               
   190 r.194                      -2         -1001               
   191 r.195                0.397989      0.397989               
   192 r.196                    1000             2               
   193 r.197                   -1000         -1001               
   194 r.198                    2000      0.917613               
   195 r.199                    1001             2               
   196 r.200                   -1001         -1001               
   197 r.201                  1000.2      0.385908               
   198 r.202                    1001             2               
   199 r.203                   -1001         -1001               
   200 r.204                  2000.5      0.894133               
   201 r.205                    1001             2               
   202 r.206                   -1001         -1001               
   203 r.207                 999.856      0.037617               
   204 r.208                    1001             2               
   205 r.209                   -1001         -1001               
   206 r.210                 1999.61       0.08035               
   207 r.211                    1001             2               
   208 r.212                   -1001         -1001               
   209 r.213                 999.873      0.054806               
   210 r.214                    1001             2               
   211 r.215                   -1001         -1001               
   212 r.216                 1999.53      0.111935               
   213 r.217                -999.818      -999.818               
   214 r.218                0.579856      -999.596               
   215 r.219                -999.818      -999.818               
   216 r.220                0.579856      -999.596               
   217 r.221                       2             2               
   218 r.222                      -2         -1001               
   219 r.223                -998.571       -999.47               
   220 r.224                    1000             2               
   221 r.225                   -1000         -1001               
   222 r.226                 2001.03      -998.645               
   223 r.227                -999.101      -999.499               
   224 r.228                 1.42859      -998.666               
   225 r.229                -999.499      -999.499               
   226 r.230                  1.0306      -998.666               
   227 r.231                 -998.39       -999.47               
   228 r.232                 1.61046      -998.645               
   229 r.233                 -998.39       -999.47               
   230 r.234                 1.61046      -998.645               
   231 r.235                       2             2               
   232 r.236                      -2         -1001               
   233 r.237                 998.571      0.181867               
   234 r.238                    1000             2               
   235 r.239                   -1000         -1001               
   236 r.240                 1998.97      0.403776               
   237 r.241                       2             2               
   238 r.242                      -2         -1001               
   239 r.243                 -0.5298      -999.499               
   240 r.244                    1000             2               
   241 r.245                   -1000         -1001               
   242 r.246                    2000      -998.666               
   243 r.247                    1001             2               
   244 r.248                   -1001         -1001               
   245 r.249                 999.305      0.385908               
   246 r.250                    1001             2               
   247 r.251                   -1001         -1001               
   248 r.252                 1999.47      0.894133               
   249 r.253                    1001             2               
   250 r.254                   -1001         -1001               
   251 r.255                 998.974      0.054806               
   252 r.256                    1001             2               
   253 r.257                   -1001         -1001               
   254 r.258                  1998.5      0.111935               
   255 r.259                       2             2               
   256 r.260                      -2         -1001               
   257 r.261                  0.5298        0.5298               
   258 r.262                    1000             2               
   259 r.263                   -1000         -1001               
   260 r.264                    2000       1.35529               

   No. Column name       Activity     Lower bound   Upper bound
------ ------------    ------------- ------------- -------------
     1 tt                    1.62946             0               
     2 s_1_1        *              1             0             1 
     3 t_1_1                  1.0306             0               
     4 s_1_8        *              1             0             1 
     5 s_1_7        *              1             0             1 
     6 s_2_1        *              0             0             1 
     7 t_2_1                  1.0306             0               
     8 s_2_8        *              0             0             1 
     9 s_2_7        *              0             0             1 
    10 s_1_2        *              0             0             1 
    11 t_1_2                 1001.22             0               
    12 s_2_2        *              1             0             1 
    13 t_2_2                  0.5298             0               
    14 s_1_3        *              0             0             1 
    15 t_1_3                 1001.57             0               
    16 s_2_3        *              1             0             1 
    17 t_2_3                 1.41817             0               
    18 s_1_4        *              0             0             1 
    19 t_1_4                 1001.56             0               
    20 s_2_4        *              1             0             1 
    21 t_2_4                 1.49852             0               
    22 s_1_5        *              1             0             1 
    23 t_1_5                 1.42859             0               
    24 s_2_5        *              0             0             1 
    25 t_2_5                  1.0306             0               
    26 s_1_6        *              1             0             1 
    27 t_1_6                 1.61046             0               
    28 s_2_6        *              0             0             1 
    29 t_2_6                 1.61046             0               
    30 t_1_7                       0             0               
    31 t_2_7                       0             0               
    32 t_1_8                  0.5298             0               
    33 t_2_8                       0             0               
    34 r_1_1_2      *              1             0             1 
    35 u_1_1_2      *              0             0             1 
    36 r_2_1_2      *              1             0             1 
    37 u_2_1_2      *              0             0             1 
    38 r_1_1_3      *              1             0             1 
    39 u_1_1_3      *              0             0             1 
    40 r_2_1_3      *              1             0             1 
    41 u_2_1_3      *              0             0             1 
    42 r_1_1_4      *              1             0             1 
    43 u_1_1_4      *              0             0             1 
    44 r_2_1_4      *              1             0             1 
    45 u_2_1_4      *              0             0             1 
    46 r_1_1_5      *              0             0             1 
    47 u_1_1_5      *              0             0             1 
    48 r_2_1_5      *              1             0             1 
    49 u_2_1_5      *              0             0             1 
    50 r_1_2_3      *              1             0             1 
    51 u_1_2_3      *              0             0             1 
    52 r_2_2_3      *              0             0             1 
    53 u_2_2_3      *              0             0             1 
    54 r_1_2_4      *              1             0             1 
    55 u_1_2_4      *              0             0             1 
    56 r_2_2_4      *              0             0             1 
    57 u_2_2_4      *              0             0             1 
    58 r_1_2_5      *              1             0             1 
    59 u_1_2_5      *              0             0             1 
    60 r_2_2_5      *              1             0             1 
    61 u_2_2_5      *              0             0             1 
    62 r_1_2_8      *              1             0             1 
    63 u_1_2_8      *              0             0             1 
    64 r_2_2_8      *              1             0             1 
    65 u_2_2_8      *              0             0             1 
    66 r_1_3_4      *              1             0             1 
    67 u_1_3_4      *              0             0             1 
    68 r_2_3_4      *              0             0             1 
    69 u_2_3_4      *              0             0             1 
    70 r_1_3_5      *              1             0             1 
    71 u_1_3_5      *              0             0             1 
    72 r_2_3_5      *              1             0             1 
    73 u_2_3_5      *              0             0             1 
    74 r_1_4_5      *              1             0             1 
    75 u_1_4_5      *              0             0             1 
    76 r_2_4_5      *              1             0             1 
    77 u_2_4_5      *              0             0             1 
    78 r_1_4_8      *              1             0             1 
    79 u_1_4_8      *              0             0             1 
    80 r_2_4_8      *              1             0             1 
    81 u_2_4_8      *              0             0             1 
    82 r_1_5_7      *              0             0             1 
    83 u_1_5_7      *              1             0             1 
    84 r_2_5_7      *              1             0             1 
    85 u_2_5_7      *              0             0             1 
    86 r_1_7_8      *              0             0             1 
    87 u_1_7_8      *              0             0             1 
    88 r_2_7_8      *              1             0             1 
    89 u_2_7_8      *              0             0             1 

Integer feasibility conditions:

KKT.PE: max.abs.err = 4.55e-13 on row 111
        max.rel.err = 7.57e-17 on row 111
        High quality

KKT.PB: max.abs.err = 5.76e-03 on row 126
        max.rel.err = 3.04e-03 on row 126
        SOLUTION IS INFEASIBLE

End of output
